001 212,80
002 141,80
003 185,80
004 140,80
005 35,80
006 37,80
007 41,80
008 164,80
009 144,80
010 109,80
011 109,80
012 185,80
013 34,80
014 130,80
015 40,80
016 147,80
017 278,80
018 37,80
019 151,80
020 153,80
021 125,80
022 28,80
023 95,80
024 127,80
025 127,80
026 22,80
027 151,80
028 147,80
029 34,80
030 128,80
031 37,80
032 35,80
033 32,80
034 183,80
035 41,80
036 163,80
037 40,80
038 45,80
039 151,80
040 32,80
041 32,80
042 25,80
043 167,80
044 135,80
045 127,80
046 117,80
047 40,80
048 164,80
049 186,80
050 47,80
051 125,80
052 151,80
053 125,80
054 143,80
055 134,80
056 162,80
057 34,80
058 241,80
059 22,80
060 61,80
061 35,80
062 117,80
063 153,80
064 40,80
065 109,80
066 134,80
067 143,80
068 141,80
069 124,80
070 34,80
071 127,80
072 209,80
073 141,80
074 38,80
075 45,80
076 108,80
077 191,80
078 172,80
079 120,80
080 186,80
081 34,80
082 32,80
083 185,80
084 112,80
085 131,80
086 163,80
087 34,80
088 37,80
089 86,80
090 105,80
091 175,80
092 43,80
093 150,80
094 143,80
095 153,80
096 28,80
097 47,80
098 40,80
099 167,80
100 31,80
101 198,80
102 18,80
103 83,80
104 53,80
105 38,80
106 163,80
107 38,80
108 192,80
164 143,80
165 95,80
166 35,80
167 153,80
168 109,80
169 147,80
170 41,80
171 66,80
172 273,80
173 35,80
174 41,80
175 27,80
176 192,80
177 44,80
178 128,80
179 150,80
180 117,80
181 230,80
182 140,80
183 140,80
184 43,80
185 131,80
186 196,80
187 38,80
188 151,80
189 32,80
190 185,80
191 276,80
192 130,80
193 156,80
194 286,80
195 147,80
196 147,80
197 76,80
198 44,80
199 130,80
200 43,80
201 164,80
202 127,80
203 30,80
204 43,80
205 99,80
206 162,80
207 77,80
208 128,80
209 230,80
210 35,80
211 244,80
212 118,80
213 151,80
214 57,80
215 140,80
216 178,80
217 27,80
218 90,80
219 149,80
220 112,80
221 176,80
222 44,80
223 157,80
224 269,80
225 237,80
226 138,80
227 164,80
228 28,80
229 205,80
230 31,80
231 159,80
232 31,80
233 30,80
234 86,80
235 239,80
236 125,80
237 150,80
238 37,80
239 34,80
240 156,80
241 224,80
242 51,80
243 237,80
244 45,80
245 221,80
246 102,80
247 127,80
248 27,80
249 54,80
250 147,80
251 189,80
252 45,80
253 291,80
254 124,80
255 44,80
256 150,80
257 159,80
258 25,80
259 143,80
260 170,80
261 34,80
262 41,80
263 111,80
264 112,80
265 151,80
266 114,80
267 127,80
268 160,80
269 31,80
270 31,80
271 170,80
272 32,80
273 117,80
274 195,80
275 28,80
276 143,80
277 117,80
278 106,80
279 32,80
280 92,80
281 151,80
282 143,80
283 34,80
284 32,80
285 143,80
286 149,80
287 162,80
288 179,80
289 82,80
290 35,80
291 169,80
292 22,80
293 166,80
294 137,80
295 34,80
296 76,80
297 109,80
298 86,80
299 101,80
300 90,80
301 98,80
302 117,80
303 82,80
304 214,80
305 163,80
306 143,80
307 164,80
308 198,80
309 111,80
310 96,80
